Route 1: 0 43 32 7 85 62 88 53 0
Route 2: 0 1 72 59 96 99 42 0
Route 3: 0 63 9 18 12 14 78 45 64 15 0
Route 4: 0 21 71 23 94 61 22 16 55 0
Route 5: 0 38 68 70 100 10 92 0
Route 6: 0 11 26 65 51 52 93 0
Route 7: 0 20 40 84 81 79 33 83 56 91 73 0
Route 8: 0 87 30 17 47 19 46 57 82 89 0
Route 9: 0 80 28 48 6 74 37 0
Route 10: 0 34 8 3 86 44 69 25 90 95 29 50 97 0
Route 11: 0 60 13 31 58 2 24 39 66 75 4 54 0
Route 12: 0 27 67 35 98 49 76 36 0
Route 13: 0 5 77 41 0
